NAME : traveling-santa-2018-prime-paths.30059.tour
COMMENT : Length = 30059
COMMENT : Found by LKH [Keld Helsgaun] Mon Jun 27 15:57:33 2022
TYPE : TOUR
DIMENSION : 100
TOUR_SECTION
1
17
52
48
62
36
51
38
95
66
63
47
93
14
74
70
56
69
46
2
65
84
68
4
27
39
21
28
23
98
89
12
13
20
29
96
91
78
83
33
73
57
79
58
55
76
30
59
45
71
41
35
7
22
49
10
25
26
85
3
88
40
97
9
50
24
64
90
86
80
60
34
54
8
6
82
87
15
43
77
5
81
11
72
61
16
99
94
67
44
42
32
75
92
31
100
18
53
37
19
-1
EOF
